SCIP Status        : solving was interrupted [time limit reached]
Total Time         :    3600.02
  solving          :    3600.00
  presolving       :       0.34 (included in solving)
  reading          :       0.02
  copying          :       1.90 (46 #copies) (minimal 0.00, maximal 0.16, average 0.04)
Original Problem   :
  Problem name     : bbbenchmark/g05_100.0.cut
  Variables        : 101 (100 binary, 0 integer, 0 implicit integer, 1 continuous)
  Constraints      : 1 initial, 1 maximal
  Objective        : minimize, 1 non-zeros (abs.min = 1, abs.max = 1)
Presolved Problem  :
  Problem name     : t_bbbenchmark/g05_100.0.cut
  Variables        : 1806 (100 binary, 0 integer, 1690 implicit integer, 16 continuous)
  Constraints      : 1736 initial, 10537 maximal
  Objective        : minimize, 1 non-zeros (abs.min = 1, abs.max = 1)
  Nonzeros         : 8521 constraint, 202 clique table
Presolvers         :   ExecTime  SetupTime  Calls  FixedVars   AggrVars   ChgTypes  ChgBounds   AddHoles    DelCons    AddCons   ChgSides   ChgCoefs
  boundshift       :       0.00       0.00      0          0          0          0          0          0          0          0          0          0
  convertinttobin  :       0.00       0.00      0          0          0          0          0          0          0          0          0          0
  domcol           :       0.00       0.00      1          0          0          0          0          0          0          0          0          0
  dualagg          :       0.00       0.00      0          0          0          0          0          0          0          0          0          0
  dualcomp         :       0.00       0.00      1          0          0          0          0          0          0          0          0          0
  dualinfer        :       0.00       0.00      0          0          0          0          0          0          0          0          0          0
  dualsparsify     :       0.00       0.00      1          0          0          0          0          0          0          0          0          0
  gateextraction   :       0.00       0.00      0          0          0          0          0          0          0          0          0          0
  implics          :       0.00       0.00      2          0          0          0          0          0          0          0          0          0
  inttobinary      :       0.00       0.00      0          0          0          0          0          0          0          0          0          0
  qpkktref         :       0.00       0.00      0          0          0          0          0          0          0          0          0          0
  redvub           :       0.00       0.00      0          0          0          0          0          0          0          0          0          0
  sparsify         :       0.00       0.00      1          0          0          0          0          0          0          0          0          0
  stuffing         :       0.00       0.00      0          0          0          0          0          0          0          0          0          0
  trivial          :       0.00       0.00      4          0          0          0          0          0          0          0          0          0
  tworowbnd        :       0.00       0.00      0          0          0          0          0          0          0          0          0          0
  dualfix          :       0.00       0.00      4          0          0          0          0          0          0          0          0          0
  genvbounds       :       0.00       0.00      0          0          0          0          0          0          0          0          0          0
  probing          :       0.28       0.00      1          0          0          0          0          0          0          0          0          0
  pseudoobj        :       0.00       0.00      1          0          0          0          1          0          0          0          0          0
  symmetry         :       0.00       0.00      0          0          0          0          0          0          0          0          0          0
  vbounds          :       0.00       0.00      1          0          0          0          0          0          0          0          0          0
  varbound         :       0.00       0.00      2          0          0          0          0          0          0          0          0          0
  and              :       0.00       0.01      2          0          0          0          0          0          0          0          0          0
  linear           :       0.00       0.00      2          0          0          0          0          0          0          0          0          0
  logicor          :       0.00       0.00      0          0          0          0          0          0          0          0          0          0
  bounddisjunction :       0.00       0.00      0          0          0          0          0          0          0          0          0          0
  nonlinear        :       0.06       0.00      5          0          0          0          1          0          0       1735          0          0
  benders          :       0.00       0.00      0          0          0          0          0          0          0          0          0          0
  components       :       0.00       0.00      1          0          0          0          0          0          0          0          0          0
  root node        :          -          -      -          0          -          -         14          -          -          -          -          -
Constraints        :     Number  MaxNumber  #Separate #Propagate    #EnfoLP    #EnfoRelax  #EnfoPS    #Check   #ResProp    Cutoffs    DomReds       Cuts    Applied      Conss   Children
  benderslp        :          0          0          0          0     123387          0          0      18195          0          0          0          0          0          0          0
  integral         :          0          0          0          0     123387          0          0      18195          0          0          5          0          0          0     246762
  varbound         :         15         15        120     485101          0          0          0         62          0          0      65294          0          0          0          0
  and              :       1690       1690     139653     785373          1          0          0         62     493234          0     675735        344        344          0          0
  linear           :         31+        43        120     785411          1          0          0         60        811          4     345031          0          0          0          0
  logicor          :          0+      8523          0     102155          0          0          0          0         13        381         22          0          0          0          0
  bounddisjunction :          0+       428          0      49455          0          0          0          0          4         23          1          0          0          0          0
  benders          :          0          0          0          0          1          0          0         61          0          0          0          0          0          0          0
  countsols        :          0          0          0          0          1          0          0         61          0          0          0          0          0          0          0
  components       :          0          0          0          0          0          0          0          0          0          0          0          0          0          0          0
Constraint Timings :  TotalTime  SetupTime   Separate  Propagate     EnfoLP     EnfoPS     EnfoRelax   Check    ResProp    SB-Prop
  benderslp        :       0.19       0.00       0.00       0.00       0.18       0.00       0.00       0.01       0.00       0.00
  integral         :      66.66       0.00       0.00       0.00      66.63       0.00       0.00       0.03       0.00       0.00
  varbound         :       1.01       0.00       0.00       1.01       0.00       0.00       0.00       0.00       0.00       0.00
  and              :     150.16       0.01     109.41      39.62       0.00       0.00       0.00       0.02       0.44       0.66
  linear           :       4.83       0.00       0.08       4.72       0.00       0.00       0.00       0.00       0.00       0.03
  logicor          :      18.58       0.00       0.00      18.55       0.00       0.00       0.00       0.00       0.00       0.03
  bounddisjunction :       1.39       0.00       0.00       1.39       0.00       0.00       0.00       0.00       0.00       0.00
  benders          :       0.01       0.00       0.00       0.00       0.00       0.00       0.00       0.01       0.00       0.00
  countsols        :       0.00       0.00       0.00       0.00       0.00       0.00       0.00       0.00       0.00       0.00
  components       :       0.22       0.00       0.00       0.22       0.00       0.00       0.00       0.00       0.00       0.00
Propagators        : #Propagate   #ResProp    Cutoffs    DomReds
  dualfix          :          4          0          0          0
  genvbounds       :          0          0          0          0
  nlobbt           :          0          0          0          0
  obbt             :          0          0          0          0
  probing          :          0          0          0          0
  pseudoobj        :     453576          0          0         23
  redcost          :     271085          0          0      49192
  rootredcost      :         17          0          0          0
  symmetry         :          0          0          0          0
  vbounds          :     115780          0          0          0
Propagator Timings :  TotalTime  SetupTime   Presolve  Propagate    ResProp    SB-Prop
  dualfix          :       0.00       0.00       0.00       0.00       0.00       0.00
  genvbounds       :       0.37       0.00       0.00       0.37       0.00       0.00
  nlobbt           :       0.00       0.00       0.00       0.00       0.00       0.00
  obbt             :       0.00       0.00       0.00       0.00       0.00       0.00
  probing          :       0.28       0.00       0.28       0.00       0.00       0.00
  pseudoobj        :       1.02       0.00       0.00       1.01       0.00       0.01
  redcost          :      16.39       0.00       0.00      16.38       0.00       0.01
  rootredcost      :       0.72       0.00       0.00       0.72       0.00       0.00
  symmetry         :       0.45       0.00       0.00       0.45       0.00       0.00
  vbounds          :       0.66       0.00       0.00       0.64       0.00       0.02
Conflict Analysis  :       Time      Calls    Success    DomReds  Conflicts   Literals    Reconvs ReconvLits   Dualrays   Nonzeros   LP Iters   (pool size: [10000,10000])
  propagation      :       0.02        404        282          -        341       63.8          0        0.0          -          -          -
  infeasible LP    :       0.06         22         22          -       1074      170.1          0        0.0         52      178.3          0
  bound exceed. LP :      16.89       7392       5529          -     137650      106.8          0        0.0          0        0.0      31285
  strong branching :       0.00          0          0          -          0        0.0          0        0.0          -          -          0
  pseudo solution  :       0.00          0          0          -          0        0.0          0        0.0          -          -          -
  applied globally :       0.71          -          -          0      33076      116.6          -          -         52          -          -
  applied locally  :          -          -          -          0          0        0.0          -          -          0          -          -
Separators         :   ExecTime  SetupTime      Calls  RootCalls    Cutoffs    DomReds  FoundCuts ViaPoolAdd  DirectAdd    Applied ViaPoolApp  DirectApp      Conss
  cut pool         :       5.42          -      31305        154          -          -      33584    1732880          -          -          -          -          -    (maximal pool size:       4276)
  aggregation      :      14.16       0.00       4639        120          0          0         52        799          0        131        131          0          0
  > cmir           :          -          -          -          -          -          -          -        799          0        131        131          0          -
  > flowcover      :          -          -          -          -          -          -          -          0          0          0          0          0          -
  > knapsackcover  :          -          -          -          -          -          -          -          0          0          0          0          0          -
  cgmip            :       0.00       0.00          0          0          0          0          0          0          0          0          0          0          0
  clique           :       0.02       0.00        120        120          0          0          0          0          0          0          0          0          0
  closecuts        :       0.00       0.00          0          0          0          0          0          0          0          0          0          0          0
  convexproj       :       0.00       0.00          0          0          0          0          0          0          0          0          0          0          0
  disjunctive      :       0.00       0.00          0          0          0          0          0          0          0          0          0          0          0
  eccuts           :       0.00       0.00          0          0          0          0          0          0          0          0          0          0          0
  gauge            :       0.00       0.00          0          0          0          0          0          0          0          0          0          0          0
  gomory           :       0.00       0.00          0          0          0          0          0          0          0          0          0          0          0
  > gomorymi       :          -          -          -          -          -          -          -          0          0          0          0          0          -
  > strongcg       :          -          -          -          -          -          -          -          0          0          0          0          0          -
  impliedbounds    :       0.32       0.00       4639        120          0          0          1          0          0          0          0          0          0
  interlattice     :       0.62       0.00         86         86          0          0         86          0         86         86          0         86          0
  interminor       :       0.00       0.00          0          0          0          0          0          0          0          0          0          0          0
  intersub         :       0.00       0.00          0          0          0          0          0          0          0          0          0          0          0
  intobj           :       0.00       0.00          0          0          0          0          0          0          0          0          0          0          0
  mcf              :       0.01       0.00          1          1          0          0          0          0          0          0          0          0          0
  minor            :       0.01       0.00          0          0          0          0          0          0          0          0          0          0          0
  mixing           :       0.02       0.00       4639        120          0          0          0          0          0          0          0          0          0
  oddcycle         :       0.00       0.00          0          0          0          0          0          0          0          0          0          0          0
  rapidlearning    :       0.04       0.00          0          0          0          0          0          0          0          0          0          0          0
  rlt              :       0.00       0.00         10         10          0          0          0          0          0          0          0          0          0
  zerohalf         :      31.28       0.00       4134         20          0          0      33531    1732081          0     211996     211996          0          0
Cutselectors       :   ExecTime  SetupTime      Calls  RootCalls   Selected     Forced   Filtered  RootSelec   RootForc   RootFilt 
  hybrid           :       1.86       0.00      17189        121     212557          0    1520753        284          0         11
Pricers            :   ExecTime  SetupTime      Calls       Vars
  problem variables:       0.00          -          0          0
Branching Rules    :   ExecTime  SetupTime   BranchLP  BranchExt   BranchPS    Cutoffs    DomReds       Cuts      Conss   Children
  allfullstrong    :       0.00       0.00          0          0          0          0          0          0          0          0
  cloud            :       0.00       0.00          0          0          0          0          0          0          0          0
  distribution     :       0.00       0.00          0          0          0          0          0          0          0          0
  fullstrong       :       0.00       0.00          0          0          0          0          0          0          0          0
  inference        :       0.00       0.00          0          0          0          0          0          0          0          0
  leastinf         :       0.00       0.00          0          0          0          0          0          0          0          0
  lookahead        :       0.00       0.00          0          0          0          0          0          0          0          0
  mostinf          :       0.00       0.00          0          0          0          0          0          0          0          0
  multaggr         :       0.00       0.00          0          0          0          0          0          0          0          0
  nodereopt        :       0.00       0.00          0          0          0          0          0          0          0          0
  pscost           :       0.00       0.00          0          0          0          0          0          0          0          0
  random           :       0.00       0.00          0          0          0          0          0          0          0          0
  relpscost        :      66.22       0.00     123386          0          0          0          5          0          0     246762
  vanillafullstrong:       0.00       0.00          0          0          0          0          0          0          0          0
Primal Heuristics  :   ExecTime  SetupTime      Calls      Found       Best
  LP solutions     :       0.00          -          -          1          1
  relax solutions  :       0.00          -          -          0          0
  pseudo solutions :       0.00          -          -          0          0
  strong branching :       0.03          -          -          0          0
  actconsdiving    :       0.00       0.00          0          0          0
  adaptivediving   :       4.11       0.00         31          0          0
  alns             :       2.68       0.00         18          2          2
  bound            :       0.00       0.00          0          0          0
  clique           :       0.01       0.00          1          0          0
  coefdiving       :       0.00       0.00          0          0          0
  completesol      :       0.00       0.00          0          0          0
  conflictdiving   :     185.15       0.00       1607          0          0
  crossover        :       1.58       0.00          5          0          0
  dins             :       0.00       0.00          0          0          0
  distributiondivin:      79.67       0.00        395          0          0
  dps              :       0.00       0.00          0          0          0
  dualval          :       0.00       0.00          0          0          0
  farkasdiving     :       0.01       0.00          0          0          0
  feaspump         :       0.34       0.00          1          1          1
  fixandinfer      :       0.00       0.00          0          0          0
  fracdiving       :      62.67       0.00        569          0          0
  gins             :       0.12       0.00          0          0          0
  guideddiving     :      68.68       0.00        581          8          8
  indicator        :       0.11       0.00          0          0          0
  indicatordiving  :       0.00       0.00          0          0          0
  intdiving        :       0.00       0.00          0          0          0
  intshifting      :       0.80       0.00        117          0          0
  linesearchdiving :      59.75       0.00        481          0          0
  localbranching   :       0.00       0.00          0          0          0
  locks            :       0.01       0.00          1          0          0
  lpface           :       0.22       0.00          0          0          0
  mpec             :     347.21       0.00         11          4          4
  multistart       :       0.00       0.00          0          0          0
  mutation         :       0.00       0.00          0          0          0
  nlpdiving        :      51.90       0.00          2          0          0
  objpscostdiving  :      87.73       0.00        110         36          0
  octane           :       0.00       0.00          0          0          0
  ofins            :       0.14       0.00          0          0          0
  oneopt           :       0.16       0.00         22          0          0
  padm             :       0.00       0.00          0          0          0
  proximity        :       0.00       0.00          0          0          0
  pscostdiving     :      60.46       0.00        438          1          1
  randrounding     :       1.51       0.00      18130          0          0
  rens             :       0.00       0.00          0          0          0
  reoptsols        :       0.00       0.00          0          0          0
  repair           :       0.00       0.00          0          0          0
  rins             :       2.85       0.00         23          0          0
  rootsoldiving    :      34.93       0.00         34          0          0
  rounding         :       1.61       0.00       5145          0          0
  shiftandpropagate:       0.00       0.00          0          0          0
  shifting         :      52.61       0.00      11805          3          3
  simplerounding   :       0.23       0.00          0          0          0
  subnlp           :     174.53       0.00          0          0          0
  trivial          :       0.00       0.00          2          2          2
  trivialnegation  :       0.00       0.00          0          0          0
  trustregion      :       0.00       0.00          0          0          0
  trysol           :       0.22       0.00          0          0          0
  twoopt           :       0.00       0.00          0          0          0
  undercover       :       1.55       0.00          1          1          1
  vbounds          :       0.00       0.00          0          0          0
  veclendiving     :      59.09       0.00        521          0          0
  zeroobj          :       0.00       0.00          0          0          0
  zirounding       :       0.50       0.00       1000          0          0
  other solutions  :          -          -          -          0          -
Diving (single)    :      Calls      Nodes   LP Iters Backtracks  Conflicts   MinDepth   MaxDepth   AvgDepth  RoundSols  NLeafSols  MinSolDpt  MaxSolDpt  AvgSolDpt
  actconsdiving    :          0          -          -          -          -          -          -          -          -          -          -          -          -
  coefdiving       :          0          -          -          -          -          -          -          -          -          -          -          -          -
  conflictdiving   :       1607      64240    1830384       1731      68910         52         87       61.3          0          -          -          -          -
  distributiondivin:        395      14633     623113        451       5966         50         65       57.5          0          -          -          -          -
  farkasdiving     :          0          -          -          -          -          -          -          -          -          -          -          -          -
  fracdiving       :        569      54670     617666         96       1258         57        280      118.2          0          -          -          -          -
  guideddiving     :        581      48727     700574        187       3862         57        209      105.1          0          8         92        130      108.9
  indicatordiving  :          0          -          -          -          -          -          -          -          -          -          -          -          -
  linesearchdiving :        481      19206     620290        454      21102         47         88       60.1          0          -          -          -          -
  pscostdiving     :        438      20840     635677        461       8195         58         81       68.7          0          1         81         81       81.0
  veclendiving     :        521      20644     618611        512      28629         53         86       60.1          0          -          -          -          -
Diving (adaptive)  :      Calls      Nodes   LP Iters Backtracks  Conflicts   MinDepth   MaxDepth   AvgDepth  RoundSols  NLeafSols  MinSolDpt  MaxSolDpt  AvgSolDpt
  actconsdiving    :          4        160       5858          4         59         57         61       58.5          0          -          -          -          -
  coefdiving       :          9        399      10563          9        544         55         88       63.8          0          -          -          -          -
  conflictdiving   :          0          -          -          -          -          -          -          -          -          -          -          -          -
  distributiondivin:          0          -          -          -          -          -          -          -          -          -          -          -          -
  farkasdiving     :          0          -          -          -          -          -          -          -          -          -          -          -          -
  fracdiving       :          2        288       2548          0          0         96        230      163.0          0          -          -          -          -
  guideddiving     :          2        165       2204          0          0        104        105      104.5          0          -          -          -          -
  indicatordiving  :          0          -          -          -          -          -          -          -          -          -          -          -          -
  linesearchdiving :          7        327      10625          5        299         54         77       63.7          0          -          -          -          -
  pscostdiving     :          2        104       2905          3         49         70         75       72.5          0          -          -          -          -
  veclendiving     :          5        191       6077          5        209         54         62       58.0          0          -          -          -          -
Neighborhoods      :      Calls  SetupTime  SolveTime SolveNodes       Sols       Best       Exp3  EpsGreedy        UCB TgtFixRate  Opt  Inf Node Stal  Sol  Usr Othr Actv
  rens             :          3       0.28       0.08         37          0          0    0.00000   -1.00000    0.49863      0.437    0    3    0    0    0    0    0    1
  rins             :          1       0.02       0.02         55          0          0    0.00000   -1.00000    0.51364      0.700    0    1    0    0    0    0    0    1
  mutation         :          4       0.18       0.22        156          1          1    0.00000   -1.00000    0.50652      0.747    1    1    0    2    0    0    0    1
  localbranching   :          2       0.22       0.07         79          0          0    0.00000   -1.00000    0.46503      0.850    0    1    0    1    0    0    0    1
  crossover        :          3       0.31       0.24         76          0          0    0.00000   -1.00000    0.45459      0.662    0    2    0    1    0    0    0    1
  proximity        :          2       0.03       0.65        997          1          1    0.00000   -1.00000    0.49883      0.850    1    0    0    1    0    0    0    1
  zeroobjective    :          2       0.11       0.05         57          0          0    0.00000   -1.00000    0.47303      0.850    0    1    0    1    0    0    0    1
  dins             :          1       0.00       0.00          0          0          0    0.00000   -1.00000    0.06864      0.900    0    0    0    0    0    0    1    1
  trustregion      :          0       0.00       0.00          0          0          0    0.00000   -1.00000    1.00000      0.900    0    0    0    0    0    0    0    0
Expressions        :   #IntEval  IntEvalTi   #RevProp  RevPropTi    DomReds    Cutoffs  #Estimate  EstimTime  Branching  #Simplify SimplifyTi Simplified
  pow              :          0       0.00          0       0.00          0          0          0       0.00          0          0       0.00          0
  prod             :       9900       0.00          0       0.00          0          0          0       0.00          0       6640       0.01          0
  sum              :          8       0.01          2       0.00          0          0          0       0.00          0          3       0.01          2
  var              :       6227       0.00          0       0.00          0          0          0       0.00          0      15288       0.00          0
  varidx           :          0       0.00          0       0.00          0          0          0       0.00          0          0       0.00          0
LP                 :       Time      Calls Iterations  Iter/call   Iter/sec  Time-0-It Calls-0-It    ItLimit
  primal LP        :     122.77      18038          0       0.00       0.00     122.72      18038
  dual LP          :    1631.16     185057   12116624      68.10    7428.23       2.64       7128
  lex dual LP      :       0.00          0          0       0.00          -
  barrier LP       :       0.00          0          0       0.00          -       0.00          0
  resolve instable :       0.00          0          0       0.00          -
  diving/probing LP:     599.17      23804    6412733     269.40   10702.69
  strong branching :      23.58       1547     231709     149.78    9826.51          -          -        408
    (at root node) :          -         24       6410     267.08          -
  conflict analysis:       4.76       3189      31285       9.81    6572.48
NLP relaxation     :
  solve time       :      51.42 (7 calls)
  convexity        :  nonconvex (46 linear rows, 0 convex ineq., 0 nonconvex ineq., 1690 nonlinear eq. or two-sided ineq.)
NLP Solvers        :  #Problems  ProblemTi    #Solves  SolveTime      #Iter  Time/Iter      #Okay #TimeLimit #IterLimit #LObjLimit #Interrupt  #NumError #EvalError  #OutOfMem #LicenseEr #OtherTerm   #GlobOpt    #LocOpt  #Feasible #LocInfeas #GlobInfea #Unbounded   #Unknown
  ipopt            :         12       7.80         42     403.03       1905       0.21         42          0          0          0          0          0          0          0          0          0          0         31          0         10          0          0          1
B&B Tree           :
  number of runs   :          1
  nodes            :     160725 (123381 internal, 37344 leaves)
  feasible leaves  :          1
  infeas. leaves   :          0
  objective leaves :      37342
  nodes (total)    :     160725 (123381 internal, 37344 leaves)
  nodes left       :      85953
  max depth        :         60
  max depth (total):         60
  backtracks       :      33396 (20.8%)
  early backtracks :          0 (0.0%)
  nodes exc. ref.  :          0 (0.0%)
  delayed cutoffs  :          5
  repropagations   :         30 (45 domain reductions, 0 cutoffs)
  avg switch length:       7.04
  switching time   :     166.62
Estim. Tree Size   :     321620
Estimation Tree    : 246763 nodes (160810 visited, 123381 internal, 37429 leaves, 85953 open), weight: 0.0000 completed 0.1274
Estimations        :      estim      value      trend resolution     smooth
  wbe              : 1751536344112286          -          -          -          -
  tree-profile     :         -1          -          -          -          -
  gap              :     747211    0.67428    0.00006         64     737284
  tree-weight      :     321620    0.00000    0.00000         64     317979
  leaf-frequency   :     321620    0.23275   -0.00011         64     317979
  ssg              :     550059    0.79882   -0.00022         64     538496
  open-nodes       :     321620 85953.00000  368.14942         64     317979
Root Node          :
  First LP value   : -1.00000000000000e+00
  First LP Iters   :       1630 (11642.86 Iter/sec)
  First LP Time    :       0.14
  Final Dual Bound : -9.48942279942280e-01
  Final Root Iters :       3498
  Root LP Estimate : -2.83755879335107e-01
Solution           :
  Solutions found  :         59 (23 improvements)
  First Solution   : +1.00000000000000e+05   (in run 1, after 0 nodes, 0.00 seconds, depth 0, found by <trivial>)
  Gap First Sol.   :   infinite
  Gap Last Sol.    :      51.52 %
  Primal Bound     : -5.62424242424241e-01   (in run 1, after 58457 nodes, 930.34 seconds, depth 102, found by <guideddiving>)
  Dual Bound       : -8.34105558345395e-01
  Gap              :      48.31 %
Integrals          :      Total       Avg%
  primal-dual      :  124936.47      34.70
  primal-ref       :          -          - (not evaluated)
  dual-ref         :          -          - (not evaluated)
